c uprop, v00.0, 
c reading from data/prog767.c.cnf
c done reading: 0.003056
p cnf 91 353
-40 -54 0
-43 -54 0
40 43 54 0
40 43 -59 0
-40 -43 -59 0
-40 43 59 0
40 -43 59 0
-46 54 0
-46 -48 0
46 48 -54 0
48 -50 -54 0
-48 -50 54 0
48 50 54 0
-48 50 -54 0
46 -53 0
-53 -56 0
-46 53 56 0
-46 56 -57 0
46 -56 -57 0
46 56 57 0
-46 -56 57 0
53 -58 0
-58 -60 0
-53 58 60 0
-42 -53 60 0
-42 53 -60 0
42 53 60 0
42 -53 -60 0
-38 58 0
-38 -45 0
38 45 -58 0
-37 45 -58 0
-37 -45 58 0
37 45 58 0
37 -45 -58 0
-36 38 0
-36 -49 0
36 -38 49 0
-35 -38 49 0
-35 38 -49 0
35 38 49 0
35 -38 -49 0
-34 36 0
-34 -52 0
34 -36 52 0
-33 -36 52 0
-33 36 -52 0
33 36 52 0
33 -36 -52 0
-32 -40 0
-32 -43 0
32 40 43 0
-31 40 43 0
-31 -40 -43 0
31 -40 43 0
31 40 -43 0
-30 32 0
-30 -48 0
30 -32 48 0
-29 -32 48 0
-29 32 -48 0
29 32 48 0
29 -32 -48 0
-28 30 0
-28 -56 0
28 -30 56 0
-27 -30 56 0
-27 30 -56 0
27 30 56 0
27 -30 -56 0
-26 28 0
-26 -60 0
26 -28 60 0
-28 60 -61 0
28 -60 -61 0
28 60 61 0
-28 -60 61 0
26 -62 0
-45 -62 0
-26 45 62 0
-26 45 -63 0
26 -45 -63 0
26 45 63 0
-26 -45 63 0
62 -64 0
-49 -64 0
49 -62 64 0
49 -62 -65 0
-49 62 -65 0
49 62 65 0
-49 -62 65 0
64 -66 0
-52 -66 0
52 -64 66 0
-41 52 -64 0
-41 -52 64 0
41 52 64 0
41 -52 -64 0
-67 -69 0
67 69 0
-71 -72 0
71 72 0
-68 -73 0
68 73 0
-74 -76 0
74 76 0
-67 77 0
67 -77 0
67 -77 -78 0
-77 -78 0
-67 77 78 0
77 78 0
-71 79 0
-71 -77 79 0
-77 79 0
71 77 -79 0
71 -79 -80 0
77 -79 -80 0
-71 79 80 0
79 80 0
-77 79 80 0
-71 -77 80 0
-73 -79 81 0
73 -81 0
73 79 -81 0
79 -81 0
73 -81 -82 0
-81 -82 0
79 -81 -82 0
-73 81 82 0
-79 81 82 0
73 79 -82 0
-67 -76 83 0
-76 -81 83 0
-67 -81 83 0
67 76 -83 0
76 81 -83 0
67 81 -83 0
76 -83 -84 0
67 -83 -84 0
81 -83 -84 0
-76 83 84 0
-67 83 84 0
-81 83 84 0
-67 -76 -81 84 0
67 76 81 -84 0
71 -85 0
83 -85 0
-71 -83 85 0
-71 -83 -86 0
71 83 -86 0
-71 83 86 0
71 -83 86 0
73 -87 0
85 -87 0
-73 -85 87 0
-73 -85 -88 0
73 85 -88 0
-73 85 88 0
73 -85 88 0
76 -89 0
87 -89 0
-76 -87 89 0
-76 -87 -90 0
76 87 -90 0
-76 87 90 0
76 -87 90 0
78 -91 0
-78 91 0
-25 -78 0
25 78 0
24 -80 0
24 -80 -91 0
24 -91 0
-24 80 91 0
-23 -24 80 0
-23 -24 91 0
23 24 -80 0
23 24 0
23 24 -91 0
23 -80 -91 0
22 -82 0
22 -24 -82 0
22 -24 0
-22 24 82 0
-21 -22 82 0
-21 -22 24 0
21 22 -82 0
21 22 0
21 22 -24 0
21 -24 -82 0
20 -22 -84 0
-20 84 0
-20 22 84 0
-20 22 0
-19 -20 84 0
-19 -20 0
-19 -20 22 0
19 20 -84 0
19 20 -22 0
-19 22 84 0
18 -67 -86 0
18 -20 -86 0
18 -20 -67 0
-18 67 86 0
-18 20 86 0
-18 20 67 0
-17 -18 86 0
-17 -18 67 0
-17 -18 20 0
17 18 -86 0
17 18 -67 0
17 18 -20 0
17 -20 -67 -86 0
-17 20 67 86 0
16 -71 -88 0
16 -18 -88 0
16 -18 -71 0
-16 71 88 0
-16 18 88 0
-16 18 71 0
-15 -16 88 0
-15 -16 71 0
-15 -16 18 0
15 16 -88 0
15 16 -71 0
15 16 -18 0
15 -18 -71 -88 0
-15 18 71 88 0
14 -73 -90 0
14 -16 -90 0
14 -16 -73 0
-14 73 90 0
-14 16 90 0
-14 16 73 0
-13 -14 90 0
-13 -14 73 0
-13 -14 16 0
13 14 -90 0
13 14 -73 0
13 14 -16 0
13 -16 -73 -90 0
-13 16 73 90 0
12 -76 -89 0
12 -14 -89 0
12 -14 -76 0
-12 76 89 0
-12 14 89 0
-12 14 76 0
-11 -12 89 0
-11 -12 76 0
-11 -12 14 0
11 12 -89 0
11 12 -76 0
11 12 -14 0
11 -14 -76 -89 0
-11 14 76 89 0
-10 -25 0
10 25 0
-9 -23 0
9 23 0
-8 -21 0
8 21 0
-7 -19 0
7 19 0
-6 -17 0
6 17 0
-5 -15 0
5 15 0
-4 -13 0
4 13 0
-11 -39 0
11 39 0
-12 -47 0
12 47 0
40 -55 0
25 -55 0
-25 -40 55 0
25 -40 0
-25 40 0
-23 -43 44 0
-43 44 -55 0
-23 44 -55 0
23 43 -44 0
43 -44 55 0
23 -44 55 0
43 -44 0
23 -44 0
-44 55 0
23 43 55 0
-21 -48 51 0
-44 -48 51 0
-21 -44 51 0
21 48 -51 0
44 48 -51 0
21 44 -51 0
48 -51 0
21 -51 0
44 -51 0
21 44 48 0
3 -19 -56 0
3 -51 -56 0
3 -19 -51 0
-3 19 56 0
-3 51 56 0
-3 19 51 0
3 -56 0
3 -19 0
3 -51 0
-19 -51 -56 0
2 -17 -60 0
2 -3 -60 0
2 -3 -17 0
-2 17 60 0
-2 3 60 0
-2 3 17 0
2 -60 0
2 -17 0
2 -3 0
-3 -17 -60 0
-15 -45 70 0
-2 -45 70 0
-2 -15 70 0
15 45 -70 0
2 45 -70 0
2 15 -70 0
-45 70 0
-15 70 0
-2 70 0
-2 -15 -45 0
-13 -49 75 0
-49 -70 75 0
-13 -70 75 0
13 49 -75 0
49 70 -75 0
13 70 -75 0
-49 75 0
-13 75 0
-70 75 0
-13 -49 -70 0
1 -11 -52 0
1 -52 -75 0
1 -11 -75 0
-1 11 52 0
-1 52 75 0
-1 11 75 0
1 -52 0
1 -11 0
1 -75 0
-11 -52 -75 0
-1 -12 0
1 -12 0
-1 12 0
